1, 19, 20, 38, 40, 41, 49, 48, 50, 51, 43, 42, 39, 35, 34, 33, 1
1, 15, 52, 53, 22, 27, 28, 29, 25, 23, 21, 30, 1
1, 17, 26, 31, 44, 45, 46, 47, 37, 24, 32, 36, 1
1, 18, 2, 3, 7, 8, 13, 10, 11, 12, 9, 5, 6, 4, 16, 14, 1
